#************************** create lattice************************

bond_style	harmonic # quadratic
angle_style	harmonic # quadratic
dihedral_style	harmonic # cosine series
improper_style	harmonic # improper dihedral quadratic
pair_style	buck/coul/long 10
pair_modify	tail yes # tail correction to vdw cutoff
kspace_style	ewald/disp 1.0e-4

# Repulsion + Dispersion

pair_coeff	1  1  14976.00  0.323625  640.80
pair_coeff	1  2  30183.57  0.291121  566.03
pair_coeff	1  3  30183.57  0.291121  566.03
pair_coeff	1  4  33702.40  0.279642  505.60
pair_coeff	1  5  4320.000  0.292826  138.2
pair_coeff      2  2  60833.90  0.264550  500.00
pair_coeff	2  3  60833.90  0.264550  500.00
pair_coeff	2  4  67925.95  0.255037  446.60	
pair_coeff	2  5  12695.88  0.265957  116.96
pair_coeff	3  3  60833.90  0.264550  500.00
pair_coeff	3  4  67925.95  0.255037  446.60
pair_coeff	3  5  12695.88  0.265957  116.96
pair_coeff      4  4  75844.80  0.246124  398.90
pair_coeff	4  5  14175.97  0.256345  104.46
pair_coeff	5  5  2649.700  0.267380  27.400

# Dispersion

#pair_coeff    1 1 0.0 1.0 640.80
#pair_coeff    1 2 0.0 1.0 566.03
#pair_coeff    1 3 0.0 1.0 566.03
#pair_coeff    1 4 0.0 1.0 505.60
#pair_coeff    1 5 0.0 1.0 138.20
#pair_coeff    2 2 0.0 1.0 500.00
#pair_coeff    2 3 0.0 1.0 500.00
#pair_coeff    2 4 0.0 1.0 446.60
#pair_coeff    2 5 0.0 1.0 116.96
#pair_coeff    3 3 0.0 1.0 500.00
#pair_coeff    3 4 0.0 1.0 446.60
#pair_coeff    3 5 0.0 1.0 116.96
#pair_coeff    4 4 0.0 1.0 398.90
#pair_coeff    4 5 0.0 1.0 104.46
#pair_coeff    5 5 0.0 1.0 27.400

# Repulsion

#pair_coeff     1 1 14976.0  0.323625  0.0
#pair_coeff     1 2 30183.57 0.291121  0.0
#pair_coeff     1 3 30183.57 0.291121  0.0
#pair_coeff     1 4 33702.40 0.279642  0.0
#pair_coeff     1 5 4320.000 0.292826  0.0
#pair_coeff     2 2 60833.90 0.264550  0.0
#pair_coeff     2 3 60833.90 0.264550  0.0
#pair_coeff     2 4 67925.95 0.255037  0.0
#pair_coeff     2 5 12695.88 0.265957  0.0
#pair_coeff     3 3 60833.90 0.264550  0.0
#pair_coeff     3 4 67925.95 0.255037  0.0
#pair_coeff     3 5 12695.88 0.265957  0.0
#pair_coeff     4 4 75844.80 0.246124  0.0
#pair_coeff     4 5 14175.97 0.256345  0.0
#pair_coeff     5 5 2649.700 0.267380  0.0

bond_coeff	1  995.05  1.23
bond_coeff	2  495.85  1.36
bond_coeff	3  336.05  1.44
bond_coeff	4  320.80  1.09

angle_coeff	1  62.5  120.917
angle_coeff	2  62.5  107.453
angle_coeff	3  65.0  95.816
angle_coeff	4  35.0  105.596
angle_coeff	5  43.2  107.006
angle_coeff	6  38.5  108.507
angle_coeff	7  35.0  110.518

dihedral_coeff	1  4.225 -1  2 
dihedral_coeff  2  0.395 -1  4
dihedral_coeff	3  0.002 -1  8
dihedral_coeff	4  -0.080 -1 3
dihedral_coeff  5  1.650 -1  1
dihedral_coeff  6  -0.805 -1 2
dihedral_coeff	7  0.055 -1  3

improper_coeff	1  4.000 0.0
improper_coeff	2  44.65 0.0

special_bonds	lj/coul	 0.0  0.0  1.0 #allowing all topo 1-4 coul/1j
